# LAMMPS input file for simulations of EMIM NTf2
# written by Leonard Dick and and Vahideh Alizadeh, 24.10.22

units real
boundary p p p
atom_style full
bond_style harmonic				    # adjust to FF
angle_style harmonic				# adjust to FF
dihedral_style opls				    # adjust to FF
special_bonds lj/coul 0.0 0.0 0.5
pair_style lj/cut/coul/long 12.00 12.00
kspace_style pppm 1.0e-5
pair_modify mix arithmetic			# change to the appropriate mixing rule, based on FF. arithmetic is for CL&P

# read parameters for the force field
read_data data.lmp

pair_coeff    1    1    0.170000     3.250000  # NA NA
pair_coeff    2    2    0.070000     3.550000  # CR CR
pair_coeff    3    3    0.070000     3.550000  # CW CW
pair_coeff    4    4    0.065999     3.500000  # C1 C1
pair_coeff    5    5    0.030000     2.420000  # HCR HCR
pair_coeff    6    6    0.065999     3.500000  # C1A C1A
pair_coeff    7    7    0.030000     2.420000  # HCW HCW
pair_coeff    8    8    0.030000     2.500000  # H1 H1
pair_coeff    9    9    0.065999     3.500000  # CE CE
pair_coeff   10   10    0.030000     2.500000  # HC HC
pair_coeff   11   11    0.170000     3.250000  # NBT NBT
pair_coeff   12   12    0.250000     3.550000  # SBT SBT
pair_coeff   13   13    0.065999     3.500000  # CBT CBT
pair_coeff   14   14    0.061042     3.118000  # F1 F1
pair_coeff   15   15    0.200134     3.150000  # OBT OBT

# General MD settings
timestep 1.0                        # time step in fs
variable T equal 350.0              # temperature in K
variable p equal 1.0                # pressure in atm

# Perform energy minimization first
thermo 1
minimize 1.0e-4 1.0e-6 500 5000
reset_timestep 0

# fix bonds to their equilibrium length using shake algorithm
fix SHAKE all shake 0.0001 20 0 b 5 6 7

# adjust neighbor list and reneighboring frequency and thermo output
neighbor 2.0 bin
neigh_modify every 1 delay 0 check yes 
thermo 100
thermo_style custom step temp press vol density pe ke etotal

# Velocity initialization
velocity all create $T 543678 dist uniform rot yes mom yes # creates random geometries with a uniform distribution of velocities, linear momenta and angular momenta of the created ensemble are zeroed

# First equilibration run NVE
fix integrator all nve/limit 0.1                # NVE integrator with atom movement limit
fix tcontrol all temp/rescale 1 ${T} ${T} 1.0 1.0   # rescale velocities to target temperature
fix fcom all momentum 1000 linear 1 1 1 rescale # rescale linear momentum to zero to avoid drift    

run 100000                                      # run for 100 ps

unfix fcom
unfix tcontrol
unfix integrator

thermo 1000


# NPT run to determine density
fix integrator all npt temp ${T} ${T} 100 iso ${p} ${p} 1000
fix fcom all momentum 1000 linear 1 1 1 rescale # rescale linear momentum to zero to avoid drift

run 1000000                                     # run for 1 ns

fix lngvin all langevin ${T} ${T} 100 48279         # Langevin thermostat

run 1000000                                     # run for 1 ns

unfix lngvin
 
run 1000000                                     # run for 1 ns


# Write cumulative average of the volume, pressure to output
variable V equal vol
variable P equal press
fix volavg all ave/time 1 1 1 v_V ave running
fix pressavg all ave/time 1 1 1 v_P ave running
thermo_style custom step temp pe etotal press vol f_pressavg f_volavg

run 2000000                                     # run for 2 ns

unfix integrator
unfix fcom


# Shrink to final density
variable boxedge equal f_volavg^(1.0/3.0)
variable boxvol equal f_volavg
variable rdens equal (mass(all)/6.02214086E-1/${boxvol})
print ">>> Average volume is ${boxvol} Angstrom^3"
print ">>> Resulting box edge z length is ${boxedge} Angstrom."
print ">>> Resulting box density is ${rdens} g/cm^3."
thermo_style custom step temp pe etotal press vol
fix defo all deform 1 x final 0.0 ${boxedge} y final 0.0 ${boxedge} z final 0.0 ${boxedge} units box
fix integrator all nvt temp ${T} ${T} 100
fix fcom all momentum 1000 linear 1 1 1 rescale
unfix volavg
unfix pressavg

run 50000                                       # run for 0.5 ns

unfix defo
unfix integrator
unfix fcom


# Last Equilibration
fix integrator all nvt temp ${T} ${T} 100

run 2000000                                     # run for 2 ns

unfix integrator

reset_timestep 0


# Write restart data files
write_data aftereq_restart.lmp
restart 1000000 restart.prod.*


# Production run 1 -> long run with low dump frequency for static properties
dump prod1 all custom 1000 prod_long.lmp id element xu yu zu
dump_modify prod1 element N C C C H C H H C H N S C F O sort id

# Run in NVT ensemble
fix integrator all nvt temp ${T} ${T} 100
print "  >>> Starting long NVT production! <<<  "
run 30000000                                    # run for 30 ns
print "  >>> Finished long NVT production! <<<  "
unfix integrator

undump prod1

write_data after_prod1_restart.lmp


# Production run 2 -> short run with high dump frequency for dynamic properties
dump prod2 all custom 1 prod_short.lmp id element xu yu zu
dump_modify prod2 element N C C C H C H H C H N S C F O sort id

# Run in NVT ensemble
fix integrator all nvt temp ${T} ${T} 100
print "  >>> Starting short NVT production! <<<  "
run 200000                                      # run for 200 ps
print "  >>> Finished short NVT production! <<<  "
unfix integrator

undump prod2

write_data after_prod2_restart.lmp


