# created by fftool

units real
boundary p p p

atom_style full
bond_style harmonic
angle_style harmonic
dihedral_style hybrid opls fourier

special_bonds lj/coul 0.0 0.0 0.5

# remove hybrid if not necessary
pair_style hybrid lj/cut/coul/long 12.0 12.0
pair_modify mix geometric tail yes
kspace_style pppm 1.0e-5

read_data data.lmp
include dihedral.lmp

# remove pair style if not using hybrid
pair_coeff    1    1 lj/cut/coul/long     0.170000     3.250000  # NA NA
pair_coeff    2    2 lj/cut/coul/long     0.105000     2.130000  # CR CR
pair_coeff    3    3 lj/cut/coul/long     0.048999     3.017500  # CW CW
pair_coeff    4    4 lj/cut/coul/long     0.065999     3.500000  # C1 C1
pair_coeff    5    5 lj/cut/coul/long     0.045000     1.452000  # HCR HCR
pair_coeff    6    6 lj/cut/coul/long     0.065999     3.500000  # C1A C1A
pair_coeff    7    7 lj/cut/coul/long     0.021009     2.057000  # HCW HCW
pair_coeff    8    8 lj/cut/coul/long     0.030000     2.500000  # H1 H1
pair_coeff    9    9 lj/cut/coul/long     0.065999     3.500000  # CE CE
pair_coeff   10   10 lj/cut/coul/long     0.030000     2.500000  # HC HC
pair_coeff   11   11 lj/cut/coul/long     0.050989     3.250000  # NBT NBT
pair_coeff   12   12 lj/cut/coul/long     0.074976     4.082500  # SBT SBT
pair_coeff   13   13 lj/cut/coul/long     0.019792     3.150000  # CBT CBT
pair_coeff   14   14 lj/cut/coul/long     0.015899     2.655000  # F1 F1
pair_coeff   15   15 lj/cut/coul/long     0.062995     3.463200  # OBT OBT

 minimize 1.0e-4 1.0e-6 100 1000
# reset_timestep 0

fix SHAKE all shake 0.0001 20 0 b 5 6 7


# General MD settings
timestep 1.0                        # time step in fs
variable T equal 350.0              # temperature in K
variable p equal 1.0                # pressure in atm

# Perform energy minimization first
thermo 1
reset_timestep 0

# fix bonds to their equilibrium length using shake algorithm

# adjust neighbor list and reneighboring frequency and thermo output
neighbor 2.0 bin
neigh_modify every 1 delay 0 check yes 
thermo 100
thermo_style custom step temp press vol density pe ke etotal

# Velocity initialization
velocity all create $T 543678 dist uniform rot yes mom yes # creates random geometries with a uniform distribution of velocities, linear momenta and angular momenta of the created ensemble are zeroed

# First equilibration run NVE
fix integrator all nve/limit 0.1                # NVE integrator with atom movement limit
fix tcontrol all temp/rescale 1 ${T} ${T} 1.0 1.0   # rescale velocities to target temperature
fix fcom all momentum 1000 linear 1 1 1 rescale # rescale linear momentum to zero to avoid drift    

run 100000                                      # run for 100 ps

unfix fcom
unfix tcontrol
unfix integrator

thermo 1000


# NPT run to determine density
fix integrator all npt temp ${T} ${T} 100 iso ${p} ${p} 1000
fix fcom all momentum 1000 linear 1 1 1 rescale # rescale linear momentum to zero to avoid drift

run 1000000                                     # run for 1 ns

fix lngvin all langevin ${T} ${T} 100 48279         # Langevin thermostat

run 1000000                                     # run for 1 ns

unfix lngvin
 
run 1000000                                     # run for 1 ns


# Write cumulative average of the volume, pressure to output
variable V equal vol
variable P equal press
fix volavg all ave/time 1 1 1 v_V ave running
fix pressavg all ave/time 1 1 1 v_P ave running
thermo_style custom step temp pe etotal press vol f_pressavg f_volavg

run 2000000                                     # run for 2 ns

unfix integrator
unfix fcom


# Shrink to final density
variable boxedge equal f_volavg^(1.0/3.0)
variable boxvol equal f_volavg
variable rdens equal (mass(all)/6.02214086E-1/${boxvol})
print ">>> Average volume is ${boxvol} Angstrom^3"
print ">>> Resulting box edge z length is ${boxedge} Angstrom."
print ">>> Resulting box density is ${rdens} g/cm^3."
thermo_style custom step temp pe etotal press vol
fix defo all deform 1 x final 0.0 ${boxedge} y final 0.0 ${boxedge} z final 0.0 ${boxedge} units box
fix integrator all nvt temp ${T} ${T} 100
fix fcom all momentum 1000 linear 1 1 1 rescale
unfix volavg
unfix pressavg

run 50000                                       # run for 0.5 ns

unfix defo
unfix integrator
unfix fcom


# Last Equilibration
fix integrator all nvt temp ${T} ${T} 100

run 2000000                                     # run for 2 ns

unfix integrator

reset_timestep 0


# Write restart data files
write_data aftereq_restart.lmp
restart 1000000 restart.prod.*


# Production run 1 -> long run with low dump frequency for static properties
dump prod1 all custom 1000 prod_long.lmp id element xu yu zu
dump_modify prod1 element N C C C H C H H C H N S C F O sort id

# Run in NVT ensemble
fix integrator all nvt temp ${T} ${T} 100
print "  >>> Starting long NVT production! <<<  "
run 30000000                                    # run for 30 ns
print "  >>> Finished long NVT production! <<<  "
unfix integrator

undump prod1

write_data after_prod1_restart.lmp


# Production run 2 -> short run with high dump frequency for dynamic properties
dump prod2 all custom 1 prod_short.lmp id element xu yu zu
dump_modify prod2 element N C C C H C H H C H N S C F O sort id

# Run in NVT ensemble
fix integrator all nvt temp ${T} ${T} 100
print "  >>> Starting short NVT production! <<<  "
run 200000                                      # run for 200 ps
print "  >>> Finished short NVT production! <<<  "
unfix integrator

undump prod2

write_data after_prod2_restart.lmp


