# interactions involving Drude particles
pair_coeff    *  16* coul/long/cs
# Thole dipole-dipole damping if more than 1 Drude per molecule
pair_coeff    1    1 thole   1.208
pair_coeff    1    2 thole   1.321
pair_coeff    1    3 thole   1.321
pair_coeff    1    4 thole   1.549
pair_coeff    1    6 thole   1.417
pair_coeff    1    9 thole   1.549
pair_coeff    1   11 thole   1.432
pair_coeff    1   12 thole   1.370
pair_coeff    1   13 thole   1.108
pair_coeff    1   14 thole   0.869
pair_coeff    1   15 thole   1.176
pair_coeff    1   16 thole   1.208
pair_coeff    1   17 thole   1.321
pair_coeff    1   18 thole   1.321
pair_coeff    1   19 thole   1.549
pair_coeff    1   20 thole   1.417
pair_coeff    1   21 thole   1.549
pair_coeff    1   22 thole   1.432
pair_coeff    1   23 thole   1.370
pair_coeff    1   24 thole   1.108
pair_coeff    1   25 thole   0.869
pair_coeff    1   26 thole   1.176
pair_coeff    2    2 thole   1.445
pair_coeff    2    3 thole   1.445
pair_coeff    2    4 thole   1.694
pair_coeff    2    6 thole   1.550
pair_coeff    2    9 thole   1.694
pair_coeff    2   11 thole   1.566
pair_coeff    2   12 thole   1.498
pair_coeff    2   13 thole   1.212
pair_coeff    2   14 thole   0.950
pair_coeff    2   15 thole   1.286
pair_coeff    2   16 thole   1.321
pair_coeff    2   17 thole   1.445
pair_coeff    2   18 thole   1.445
pair_coeff    2   19 thole   1.694
pair_coeff    2   20 thole   1.550
pair_coeff    2   21 thole   1.694
pair_coeff    2   22 thole   1.566
pair_coeff    2   23 thole   1.498
pair_coeff    2   24 thole   1.212
pair_coeff    2   25 thole   0.950
pair_coeff    2   26 thole   1.286
pair_coeff    3    3 thole   1.445
pair_coeff    3    4 thole   1.694
pair_coeff    3    6 thole   1.550
pair_coeff    3    9 thole   1.694
pair_coeff    3   11 thole   1.566
pair_coeff    3   12 thole   1.498
pair_coeff    3   13 thole   1.212
pair_coeff    3   14 thole   0.950
pair_coeff    3   15 thole   1.286
pair_coeff    3   16 thole   1.321
pair_coeff    3   17 thole   1.445
pair_coeff    3   18 thole   1.445
pair_coeff    3   19 thole   1.694
pair_coeff    3   20 thole   1.550
pair_coeff    3   21 thole   1.694
pair_coeff    3   22 thole   1.566
pair_coeff    3   23 thole   1.498
pair_coeff    3   24 thole   1.212
pair_coeff    3   25 thole   0.950
pair_coeff    3   26 thole   1.286
pair_coeff    4    4 thole   1.985
pair_coeff    4    6 thole   1.816
pair_coeff    4    9 thole   1.985
pair_coeff    4   11 thole   1.836
pair_coeff    4   12 thole   1.756
pair_coeff    4   13 thole   1.420
pair_coeff    4   14 thole   1.114
pair_coeff    4   15 thole   1.507
pair_coeff    4   16 thole   1.549
pair_coeff    4   17 thole   1.694
pair_coeff    4   18 thole   1.694
pair_coeff    4   19 thole   1.985
pair_coeff    4   20 thole   1.816
pair_coeff    4   21 thole   1.985
pair_coeff    4   22 thole   1.836
pair_coeff    4   23 thole   1.756
pair_coeff    4   24 thole   1.420
pair_coeff    4   25 thole   1.114
pair_coeff    4   26 thole   1.507
pair_coeff    6    6 thole   1.662
pair_coeff    6    9 thole   1.816
pair_coeff    6   11 thole   1.680
pair_coeff    6   12 thole   1.607
pair_coeff    6   13 thole   1.299
pair_coeff    6   14 thole   1.019
pair_coeff    6   15 thole   1.379
pair_coeff    6   16 thole   1.417
pair_coeff    6   17 thole   1.550
pair_coeff    6   18 thole   1.550
pair_coeff    6   19 thole   1.816
pair_coeff    6   20 thole   1.662
pair_coeff    6   21 thole   1.816
pair_coeff    6   22 thole   1.680
pair_coeff    6   23 thole   1.607
pair_coeff    6   24 thole   1.299
pair_coeff    6   25 thole   1.019
pair_coeff    6   26 thole   1.379
pair_coeff    9    9 thole   1.985
pair_coeff    9   11 thole   1.836
pair_coeff    9   12 thole   1.756
pair_coeff    9   13 thole   1.420
pair_coeff    9   14 thole   1.114
pair_coeff    9   15 thole   1.507
pair_coeff    9   16 thole   1.549
pair_coeff    9   17 thole   1.694
pair_coeff    9   18 thole   1.694
pair_coeff    9   19 thole   1.985
pair_coeff    9   20 thole   1.816
pair_coeff    9   21 thole   1.985
pair_coeff    9   22 thole   1.836
pair_coeff    9   23 thole   1.756
pair_coeff    9   24 thole   1.420
pair_coeff    9   25 thole   1.114
pair_coeff    9   26 thole   1.507
pair_coeff   11   11 thole   1.698
pair_coeff   11   12 thole   1.624
pair_coeff   11   13 thole   1.313
pair_coeff   11   14 thole   1.030
pair_coeff   11   15 thole   1.394
pair_coeff   11   16 thole   1.432
pair_coeff   11   17 thole   1.566
pair_coeff   11   18 thole   1.566
pair_coeff   11   19 thole   1.836
pair_coeff   11   20 thole   1.680
pair_coeff   11   21 thole   1.836
pair_coeff   11   22 thole   1.698
pair_coeff   11   23 thole   1.624
pair_coeff   11   24 thole   1.313
pair_coeff   11   25 thole   1.030
pair_coeff   11   26 thole   1.394
pair_coeff   12   12 thole   1.553
pair_coeff   12   13 thole   1.256
pair_coeff   12   14 thole   0.985
pair_coeff   12   15 thole   1.333
pair_coeff   12   16 thole   1.370
pair_coeff   12   17 thole   1.498
pair_coeff   12   18 thole   1.498
pair_coeff   12   19 thole   1.756
pair_coeff   12   20 thole   1.607
pair_coeff   12   21 thole   1.756
pair_coeff   12   22 thole   1.624
pair_coeff   12   23 thole   1.553
pair_coeff   12   24 thole   1.256
pair_coeff   12   25 thole   0.985
pair_coeff   12   26 thole   1.333
pair_coeff   13   13 thole   1.016
pair_coeff   13   14 thole   0.797
pair_coeff   13   15 thole   1.078
pair_coeff   13   16 thole   1.108
pair_coeff   13   17 thole   1.212
pair_coeff   13   18 thole   1.212
pair_coeff   13   19 thole   1.420
pair_coeff   13   20 thole   1.299
pair_coeff   13   21 thole   1.420
pair_coeff   13   22 thole   1.313
pair_coeff   13   23 thole   1.256
pair_coeff   13   24 thole   1.016
pair_coeff   13   25 thole   0.797
pair_coeff   13   26 thole   1.078
pair_coeff   14   14 thole   0.625
pair_coeff   14   15 thole   0.846
pair_coeff   14   16 thole   0.869
pair_coeff   14   17 thole   0.950
pair_coeff   14   18 thole   0.950
pair_coeff   14   19 thole   1.114
pair_coeff   14   20 thole   1.019
pair_coeff   14   21 thole   1.114
pair_coeff   14   22 thole   1.030
pair_coeff   14   23 thole   0.985
pair_coeff   14   24 thole   0.797
pair_coeff   14   25 thole   0.625
pair_coeff   14   26 thole   0.846
pair_coeff   15   15 thole   1.144
pair_coeff   15   16 thole   1.176
pair_coeff   15   17 thole   1.286
pair_coeff   15   18 thole   1.286
pair_coeff   15   19 thole   1.507
pair_coeff   15   20 thole   1.379
pair_coeff   15   21 thole   1.507
pair_coeff   15   22 thole   1.394
pair_coeff   15   23 thole   1.333
pair_coeff   15   24 thole   1.078
pair_coeff   15   25 thole   0.846
pair_coeff   15   26 thole   1.144
pair_coeff   16   16 thole   1.208
pair_coeff   16   17 thole   1.321
pair_coeff   16   18 thole   1.321
pair_coeff   16   19 thole   1.549
pair_coeff   16   20 thole   1.417
pair_coeff   16   21 thole   1.549
pair_coeff   16   22 thole   1.432
pair_coeff   16   23 thole   1.370
pair_coeff   16   24 thole   1.108
pair_coeff   16   25 thole   0.869
pair_coeff   16   26 thole   1.176
pair_coeff   17   17 thole   1.445
pair_coeff   17   18 thole   1.445
pair_coeff   17   19 thole   1.694
pair_coeff   17   20 thole   1.550
pair_coeff   17   21 thole   1.694
pair_coeff   17   22 thole   1.566
pair_coeff   17   23 thole   1.498
pair_coeff   17   24 thole   1.212
pair_coeff   17   25 thole   0.950
pair_coeff   17   26 thole   1.286
pair_coeff   18   18 thole   1.445
pair_coeff   18   19 thole   1.694
pair_coeff   18   20 thole   1.550
pair_coeff   18   21 thole   1.694
pair_coeff   18   22 thole   1.566
pair_coeff   18   23 thole   1.498
pair_coeff   18   24 thole   1.212
pair_coeff   18   25 thole   0.950
pair_coeff   18   26 thole   1.286
pair_coeff   19   19 thole   1.985
pair_coeff   19   20 thole   1.816
pair_coeff   19   21 thole   1.985
pair_coeff   19   22 thole   1.836
pair_coeff   19   23 thole   1.756
pair_coeff   19   24 thole   1.420
pair_coeff   19   25 thole   1.114
pair_coeff   19   26 thole   1.507
pair_coeff   20   20 thole   1.662
pair_coeff   20   21 thole   1.816
pair_coeff   20   22 thole   1.680
pair_coeff   20   23 thole   1.607
pair_coeff   20   24 thole   1.299
pair_coeff   20   25 thole   1.019
pair_coeff   20   26 thole   1.379
pair_coeff   21   21 thole   1.985
pair_coeff   21   22 thole   1.836
pair_coeff   21   23 thole   1.756
pair_coeff   21   24 thole   1.420
pair_coeff   21   25 thole   1.114
pair_coeff   21   26 thole   1.507
pair_coeff   22   22 thole   1.698
pair_coeff   22   23 thole   1.624
pair_coeff   22   24 thole   1.313
pair_coeff   22   25 thole   1.030
pair_coeff   22   26 thole   1.394
pair_coeff   23   23 thole   1.553
pair_coeff   23   24 thole   1.256
pair_coeff   23   25 thole   0.985
pair_coeff   23   26 thole   1.333
pair_coeff   24   24 thole   1.016
pair_coeff   24   25 thole   0.797
pair_coeff   24   26 thole   1.078
pair_coeff   25   25 thole   0.625
pair_coeff   25   26 thole   0.846
pair_coeff   26   26 thole   1.144
